SCIP version 5.0.0 [precision: 8 byte] [memory: block] [mode: optimized] [LP solver: NONE] [GitHash: 3bbd232]
Copyright (C) 2002-2017 Konrad-Zuse-Zentrum fuer Informationstechnik Berlin (ZIB)

External codes: 
  Readline EditLine w  GNU library for command line editing (gnu.org/s/readline)
  CppAD 20160000.1     Algorithmic Differentiation of C++ algorithms developed by B. Bell (www.coin-or.org/CppAD)
  ZLIB 1.2.5           General purpose compression library by J. Gailly and M. Adler (zlib.net)
  GMP 6.1.2            GNU Multiple Precision Arithmetic Library developed by T. Granlund (gmplib.org)

user parameter file <scip.set> not found - using default parameters

read problem <../../Split_data/output/seismic-bumps/4/3_sample_seismic-bumps.logreg>
============

File name	:	../../Split_data/output/seismic-bumps/4/3_sample_seismic-bumps.logreg
Problem name 	:	3_sample_seismic-bumps
Number of data	:	2068
Number of var	:	21
The given data has linear dependence
5 sets of column vector are linearly dependent:
{ 2 3}, { 4 5 6}, { 7 8}, { 13 14 15}, { 16 17 18 19 20}, 

[dim=1] time: 0.034572
[dim=2] time: 0.070932
[dim=3] time: 0.103937
[dim=4] time: 0.134619
[dim=5] time: 0.166237
[dim=6] time: 0.184395
[dim=7] time: 0.206455
[dim=8] time: 0.221851
[dim=9] Time of forward = 0.23659sec.
AIC: 864.994
k: 8

[dim=16] time: 0.064875
[dim=15] time: 0.085431
[dim=14] time: 0.108757
[dim=13] time: 0.124932
[dim=12] time: 0.150908
[dim=11] time: 0.172681
[dim=10] time: 0.198127
[dim=9] time: 0.215928
[dim=8] Time of backward = 0.232478sec.
AIC: 866.994
k: 9
